(set-info :Origin "This instance was generated by: BanditFuzz-- an RL fuzzer for SMT solvers" )
(set-info :Author "Joe Scott, Fed Mora, Vijay Ganesh" )
(set-info :Contact "Joe Scott, joseph.scott@uwaterloo.ca")
(set-logic QF_BV)
(declare-const bool_0 Bool)
(declare-const bool_1 Bool)
(declare-const bool_2 Bool)
(declare-const bool_3 Bool)
(declare-const bool_4 Bool)
(declare-const bv_0 (_ BitVec 32))
(declare-const bv_1 (_ BitVec 32))
(declare-const bv_2 (_ BitVec 32))
(declare-const bv_3 (_ BitVec 32))
(declare-const bv_4 (_ BitVec 32))
(assert (and (=> (bvuge bv_3 bv_4) (bvsge #x36f860df  bv_0)) (bvslt (bvor bv_0 bv_0) (bvsmod bv_4 #xf0f2a314 ))))
(assert (bvult (bvlshr (bvmul #xcbc30f57  bv_3) (bvnor #xba01d67a  bv_1)) (bvnand (bvashr #x6e828a57  #x9b4bcf0c ) (bvurem bv_2 bv_1))))
(assert (bvult (bvxor (bvnand #x2df68f81  bv_4) (bvshl #xf3ccaf27  bv_2)) (bvsub (bvsub bv_2 bv_1) (bvsrem #x38784c32  #x21ec992a ))))
(assert (bvule (bvshl (bvxnor #x992270ff  #xf2f821f7 ) (bvmul #xd849ffa7  #xd1bbe2eb )) (bvsub (bvmul #x9ce8c14f  #x02e1f545 ) (bvor #x88ed2c1b  #xdef72026 ))))
(assert (bvslt (bvsmod (bvsdiv #xa116db6b  #x577a0d98 ) (bvor bv_1 bv_4)) (bvurem (bvnor bv_3 #x0ff1e9e3 ) (bvshl #xb95454e5  bv_4))))
(check-sat)
(exit)
